5
165 82 250  641
222 63 272  668
6 332 462  851
44 415 424  787
431 440 248  247
20
335 39 280  78 121
125 283 256  158 262
24 68 122  370 148
110 404 442  91 388
269 10 311  437 199
245 388 271  56 331
339 441 418  188 81
15 367 338  287 363
422 321 39  151 40
91 93 343  377 336
88 245 107  93 186
91 110 55  128 464
347 492 75  47 361
211 19 240  257 431
344 488 447  87 237
103 370 92  373 207
166 212 236  410 231
21 419 180  204 266
159 486 241  499 69
195 228 1  412 276
